%chk=C:\Users\admin\Desktop\Tingzhou Yang\C6H15O3Al.chk
%mem=2GB
%nprocshared=8
#p freq rb3lyp/6-31+g(d,p) scrf=check guess=tcheck
geom=(connectivity,allcheck) genchk

Title Card Required

0 1
 Al                -2.13502031    1.27934896    6.51062472
 O                 -3.08699528   -0.37650238    6.51061908
 O                 -3.09304185    2.93170896    6.50955687
 O                 -0.22502380    1.28284029    6.51169820
 C                 -3.32340356   -0.79120115    7.85859387
 C                 -4.10977835   -2.06843936    7.89064547
 H                 -3.87538029    0.02617086    8.38322730
 H                 -2.33459159   -0.92294406    8.36148266
 H                 -4.29462069   -2.39277131    8.94345911
 H                 -5.09849604   -1.93632043    7.38759515
 H                 -3.55765338   -2.88556219    7.36572382
 C                  0.25147049    1.33379974    7.85901268
 C                  1.73876550    1.52825841    7.88883666
 H                 -0.03271548    0.37962313    8.36576791
 H                 -0.26769261    2.17402408    8.38102339
 H                  2.11138953    1.56818097    8.94113510
 H                  2.25757663    0.68787340    7.36666262
 H                  2.02266341    2.48239875    7.38179361
 C                 -3.17860016    3.43301182    5.17304080
 C                 -3.98026583    4.70045011    5.13202387
 H                 -3.64984041    2.64634574    4.53499327
 H                 -2.14061455    3.60943733    4.79959421
 H                 -4.04729628    5.09241947    4.08816497
 H                 -5.01816942    4.52363970    5.50561712
 H                 -3.50890718    5.48684999    5.77035821

 1 2 1.0 3 1.0 4 1.0
 2 5 1.0
 3 19 1.0
 4 12 1.0
 5 6 1.0 7 1.0 8 1.0
 6 9 1.0 10 1.0 11 1.0
 7
 8
 9
 10
 11
 12 13 1.0 14 1.0 15 1.0
 13 16 1.0 17 1.0 18 1.0
 14
 15
 16
 17
 18
 19 20 1.0 21 1.0 22 1.0
 20 23 1.0 24 1.0 25 1.0
 21
 22
 23
 24
 25